instances/generated/generated7.atsp
NAME:generated7.atsp
TYPE:ATSP
COMMENT:generatedFromCode
DIMENSION:7
EDGE_WEIGHT_TYPE:EXPLICIT
EDGE_WEIGHT_FORMAT:FULL_MATRIX
EDGE_WEIGHT_SECTION
0 189 431 11 379 396 322 
313 0 88 346 347 391 139 
410 106 0 484 149 133 91 
6 186 486 0 215 81 228 
272 349 8 42 0 454 414 
138 356 42 115 224 0 171 
21 266 65 459 301 128 0 
EOF