instances/generated/generated7.tsp
NAME:generated7.tsp
TYPE:TSP
COMMENT:generatedFromCode
DIMENSION:7
EDGE_WEIGHT_TYPE:EXPLICIT
EDGE_WEIGHT_FORMAT:FULL_MATRIX
EDGE_WEIGHT_SECTION
0 193 127 388 204 207 152 
193 0 11 477 249 489 352 
127 11 0 342 83 370 399 
388 477 342 0 45 4 144 
204 249 83 45 0 222 208 
207 489 370 4 222 0 447 
152 352 399 144 208 447 0 
EOF